NAME 
ROWS
 N  OBJ
 L  R0      
 E  R1      
 E  R2      
 E  R3      
 E  R4      
 E  R5      
COLUMNS
    MARKER    'MARKER'                 'INTORG'
    I0(4)     OBJ       82
    I0(4)     R0        -17
    I0(4)     R1        5
    I0(4)     R2        8
    I0(4)     R5        1
    I1(4)     OBJ       -95
    I1(4)     R0        132
    I1(4)     R1        9
    I1(4)     R2        14
    I1(4)     R5        1
    MARKER    'MARKER'                 'INTEND'
    C2(2)     OBJ       6
    C2(2)     R0        5
    C2(2)     R4        9
    C3(4)     OBJ       -6
    C3(4)     R0        4
    C3(4)     R1        6
    C3(4)     R3        15
    C3(4)     R4        5
    C4(3)     R0        1
    C4(3)     R3        18
    C4(3)     R4        2
    C5(1)     R1        1
    C6(1)     R2        1
    C7(1)     R3        1
    C8(1)     R4        1
    C9(1)     R5        1
RHS
    RHS1      R0        21.6
    RHS1      R1        50
    RHS1      R2        53
    RHS1      R3        81
    RHS1      R4        53
BOUNDS
 UP BND1      I0(4)     1
 UP BND1      I1(4)     1
ENDATA
